sat-intances/3.param.solution
language ESSENCE' 1.0
letting actionFrom be [0, 2, 0, 3, 2, 0, 2, 0, 3, 2]
letting actionTo be [2, 3, 2, 2, 1, 2, 3, 2, 2, 1]
letting actionTypes be [1, 4, 1, 5, 2, 1, 4, 1, 5, 2]
letting pointers be [[0, 1, 1, 2, 2, 2, 3, 3, 4, 4, 4;int(0..10)], 
[0, 0, 0, 0, 0, 1, 1, 1, 1, 1, 2;int(0..10)];int(0..1)]
letting statePlaces be [[-1, 3, 3, 2, 5, 5, 9, 9, 12, 21, 21;int(0..10)], 
[-1, -1, 3, 3, 3, 3, 3, 9, 9, 9, 9;int(0..10)];int(2..3)]
